c Property 3
c State transition safety check
c Verifies valid state transitions in legacy system module C
c This property checks consistency of transition guards
p cnf 6 10
1 2 0
-1 3 0
2 -3 4 0
-2 5 0
3 -4 0
4 5 6 0
-5 1 0
-6 2 3 0
1 -4 5 0
-1 -2 6 0